Normalized Data/p10_26_normalized_split0.vrp
NAME:p10_26_NORMALIZED_split
BEST_KNOWN: 0
COMMENT: 0
DIMENSION: 796
CAPACITY: 100
EDGE_WEIGHT_FORMAT: FUNCTION
EDGE_WEIGHT_TYPE: EXACT_2D
NODE_COORD_SECTION
1 0.00000 0.00000
2 34 -14
3 34 -14
4 34 -14
5 34 -14
6 34 -14
7 50 24
8 50 24
9 50 24
10 50 24
11 50 24
12 50 24
13 -1 29
14 -1 29
15 -1 29
16 -1 29
17 -1 29
18 -1 29
19 12 -7
20 12 -7
21 12 -7
22 12 -7
23 12 -7
24 12 -7
25 -17 14
26 -17 14
27 -17 14
28 12 -17
29 12 -17
30 12 -17
31 -14 19
32 -14 19
33 -14 19
34 -14 19
35 -14 19
36 -14 19
37 39 45
38 39 45
39 39 45
40 39 45
41 39 45
42 39 45
43 -11 33
44 -11 33
45 -13 -15
46 -13 -15
47 -13 -15
48 -13 -15
49 6 -29
50 -42 9
51 -42 9
52 -42 9
53 -42 9
54 -42 9
55 -42 9
56 -42 9
57 16 -33
58 16 -33
59 16 -33
60 16 -33
61 16 -33
62 16 -33
63 -23 -8
64 -23 -8
65 -23 -8
66 -23 -8
67 38 -40
68 38 -40
69 38 -40
70 38 -40
71 38 -40
72 -20 22
73 -20 22
74 -20 22
75 -20 22
76 39 -7
77 39 -7
78 39 -7
79 -31 4
80 -31 4
81 -31 4
82 -31 4
83 47 -41
84 47 -41
85 -38 16
86 -38 16
87 -38 16
88 -38 16
89 -38 16
90 16 39
91 16 39
92 16 39
93 16 39
94 16 39
95 16 39
96 16 39
97 36 -9
98 36 -9
99 36 -9
100 36 -9
101 36 -9
102 36 -9
103 1 -27
104 1 -27
105 1 -27
106 34 36
107 34 36
108 34 36
109 34 36
110 34 36
111 1 -41
112 1 -41
113 44 20
114 44 20
115 44 20
116 27 40
117 27 40
118 27 40
119 27 40
120 28 -5
121 28 -5
122 28 -5
123 28 -5
124 28 -5
125 -27 -16
126 -27 -16
127 -27 -16
128 -27 -16
129 -27 -16
130 -19 14
131 -19 14
132 43 23
133 43 23
134 43 23
135 43 23
136 43 23
137 1 30
138 1 30
139 1 30
140 18 21
141 18 21
142 18 21
143 18 21
144 14 -9
145 14 -9
146 14 -9
147 14 -9
148 14 -9
149 -32 -10
150 -32 -10
151 -32 -10
152 -32 -10
153 -32 -10
154 -31 -25
155 -31 -25
156 -31 -25
157 -31 -25
158 -31 -25
159 -31 -25
160 -31 -25
161 -35 -40
162 -35 -40
163 5 35
164 5 35
165 5 35
166 3 24
167 3 24
168 -20 15
169 -20 15
170 38 41
171 38 41
172 38 41
173 2 -4
174 2 -4
175 2 -4
176 2 -4
177 2 -4
178 33 -34
179 33 -34
180 33 -34
181 33 -34
182 33 -34
183 -6 -10
184 -6 -10
185 -6 -10
186 -6 -10
187 42 -29
188 42 -29
189 42 -29
190 42 -29
191 42 -29
192 42 -29
193 10 -32
194 10 -32
195 10 -32
196 10 -32
197 10 -32
198 10 -32
199 -18 2
200 -18 2
201 -18 2
202 -18 2
203 -18 2
204 2 -9
205 2 -9
206 2 -9
207 2 -9
208 2 -9
209 -38 21
210 -38 21
211 -38 21
212 -38 21
213 6 -2
214 6 -2
215 6 -2
216 6 -2
217 5 38
218 5 38
219 46 43
220 46 43
221 46 43
222 46 43
223 -17 4
224 -17 4
225 -2 -17
226 -2 -17
227 -2 -17
228 -2 -17
229 -2 -17
230 -27 43
231 -27 43
232 -27 43
233 -27 43
234 -27 43
235 35 49
236 35 49
237 35 49
238 35 49
239 -19 -50
240 -19 -50
241 -19 -50
242 30 -39
243 30 -39
244 30 -39
245 30 -39
246 30 -39
247 30 -39
248 23 48
249 23 48
250 23 48
251 40 -3
252 40 -3
253 40 -3
254 40 -3
255 40 -3
256 40 -3
257 -14 -25
258 -14 -25
259 -14 -25
260 -14 -25
261 41 18
262 41 18
263 41 18
264 41 18
265 41 -40
266 41 -40
267 41 -40
268 -32 37
269 -32 37
270 -32 37
271 -32 37
272 -32 37
273 -23 1
274 -23 1
275 -31 45
276 -31 45
277 -31 45
278 -31 45
279 -31 45
280 -31 45
281 -16 -25
282 -16 -25
283 -16 -25
284 -10 -45
285 -24 47
286 -16 30
287 -16 30
288 -16 30
289 5 19
290 5 19
291 5 19
292 5 19
293 5 19
294 5 19
295 -33 -9
296 -33 -9
297 -33 -9
298 -33 -9
299 32 -50
300 32 -50
301 32 -50
302 32 -50
303 37 -41
304 37 -41
305 37 -41
306 37 -41
307 37 -41
308 37 -41
309 -22 4
310 -22 4
311 -22 4
312 42 -32
313 42 -32
314 42 -32
315 42 -32
316 35 21
317 35 21
318 35 21
319 35 21
320 35 21
321 35 21
322 -40 23
323 -40 23
324 -40 23
325 -40 23
326 -40 23
327 -40 23
328 2 -8
329 2 -8
330 45 -9
331 45 -9
332 45 -9
333 45 -9
334 36 16
335 36 16
336 36 16
337 42 -49
338 42 -49
339 42 -49
340 42 -49
341 42 -49
342 -24 -10
343 -24 -10
344 -24 -10
345 -24 -10
346 -24 -10
347 -24 -10
348 -4 -46
349 -4 -46
350 28 -23
351 28 -23
352 28 -23
353 28 -23
354 8 16
355 8 16
356 8 16
357 8 16
358 -21 36
359 -21 36
360 -21 36
361 -21 36
362 -21 36
363 -21 36
364 -1 34
365 -1 34
366 -1 34
367 -1 34
368 -1 34
369 -1 34
370 -1 34
371 -35 4
372 -35 4
373 -35 4
374 -35 4
375 -35 4
376 -42 28
377 -42 28
378 -42 28
379 -42 28
380 -42 28
381 -13 46
382 -13 46
383 14 9
384 14 9
385 42 9
386 42 9
387 15 22
388 15 22
389 15 22
390 15 22
391 15 22
392 15 22
393 -39 -12
394 -39 -12
395 -39 -12
396 30 50
397 -36 -31
398 -36 -31
399 -36 -31
400 -36 -31
401 -36 -31
402 -31 -31
403 -31 -31
404 44 17
405 -14 -46
406 -14 -46
407 -14 -46
408 -14 -46
409 -14 -46
410 -10 -42
411 -10 -42
412 -10 -42
413 -10 -42
414 -16 29
415 -16 29
416 -16 29
417 -16 29
418 -16 29
419 14 -17
420 4 -33
421 4 -33
422 4 -33
423 4 -33
424 4 -33
425 39 -29
426 39 -29
427 39 -29
428 40 43
429 40 43
430 40 43
431 40 43
432 40 43
433 -30 -40
434 -30 -40
435 -30 -40
436 -30 -40
437 -47 1
438 -47 1
439 -47 1
440 33 9
441 33 9
442 33 9
443 33 9
444 25 -6
445 25 -6
446 25 -6
447 25 -6
448 25 -6
449 28 -50
450 28 -50
451 28 -50
452 28 -50
453 28 -50
454 28 -50
455 -27 49
456 -27 49
457 -27 49
458 15 5
459 15 5
460 15 5
461 15 5
462 15 5
463 15 5
464 -11 -3
465 -11 -3
466 -11 -3
467 -11 -3
468 -11 -3
469 -11 -3
470 -11 -3
471 41 -22
472 41 -22
473 11 -45
474 11 -45
475 11 -45
476 11 -45
477 11 -45
478 43 -36
479 43 -36
480 35 18
481 35 18
482 -4 -45
483 -4 -45
484 -5 45
485 -5 45
486 -5 45
487 -5 45
488 -5 45
489 -5 45
490 45 2
491 45 2
492 45 2
493 45 2
494 32 -9
495 32 -9
496 32 -9
497 32 -9
498 32 -9
499 32 -9
500 23 -45
501 23 -45
502 23 -45
503 23 -45
504 23 -45
505 23 -45
506 40 46
507 40 46
508 37 12
509 37 12
510 37 12
511 32 8
512 32 8
513 32 8
514 -33 -28
515 -33 -28
516 -21 -17
517 -21 -17
518 -21 -17
519 28 -33
520 28 -33
521 28 -33
522 -8 -50
523 -8 -50
524 0 34
525 0 34
526 0 34
527 0 34
528 0 34
529 6 11
530 6 11
531 6 11
532 6 11
533 -21 12
534 -21 12
535 -21 12
536 -21 12
537 -47 -16
538 -47 -16
539 19 -37
540 19 -37
541 19 -37
542 19 -37
543 13 -43
544 13 -43
545 13 -43
546 13 -43
547 13 -43
548 13 31
549 13 31
550 -50 24
551 -50 24
552 -50 24
553 -50 24
554 -50 24
555 -32 15
556 -32 15
557 -32 15
558 -32 15
559 25 3
560 25 3
561 25 3
562 25 3
563 25 3
564 25 3
565 32 28
566 32 28
567 32 28
568 32 28
569 32 28
570 -38 -33
571 -38 -33
572 -38 -33
573 -38 -33
574 -38 -33
575 -38 -33
576 2 -8
577 2 -8
578 2 -8
579 2 -8
580 -1 18
581 -1 18
582 -46 -6
583 -46 -6
584 -46 -6
585 -46 -6
586 -46 -6
587 -46 -6
588 -4 -26
589 -4 -26
590 -4 -26
591 43 48
592 43 48
593 43 48
594 43 48
595 -17 26
596 -17 26
597 -17 26
598 -17 26
599 -17 26
600 -17 26
601 -27 4
602 -27 4
603 -27 4
604 -27 4
605 -27 4
606 10 -10
607 10 -10
608 11 -19
609 11 -19
610 11 -19
611 11 -19
612 -24 -46
613 -24 -46
614 -24 -46
615 -24 -46
616 -24 -46
617 -24 -46
618 4 -23
619 4 -23
620 4 -23
621 4 -23
622 4 -23
623 4 -23
624 -23 7
625 -23 7
626 -36 34
627 -36 34
628 -36 34
629 -36 34
630 -26 -5
631 -26 -5
632 -26 -5
633 -26 -5
634 -42 -25
635 -42 -25
636 -42 -25
637 30 -21
638 30 -21
639 30 -21
640 30 -21
641 30 -21
642 30 -21
643 30 -21
644 8 -7
645 8 -7
646 -39 16
647 -39 16
648 -39 16
649 -39 16
650 -39 16
651 -25 27
652 -25 27
653 -25 27
654 0 -47
655 0 -47
656 0 -47
657 23 42
658 23 42
659 -35 -28
660 -35 -28
661 -35 -28
662 -35 -28
663 -37 29
664 -37 29
665 -37 29
666 -37 29
667 -37 29
668 17 12
669 17 12
670 17 12
671 17 12
672 17 12
673 -19 -39
674 -19 -39
675 -19 -39
676 -19 -39
677 -10 -37
678 -10 -37
679 -10 -37
680 -10 -37
681 30 -42
682 30 -42
683 25 8
684 25 8
685 25 8
686 25 8
687 -9 -40
688 -9 -40
689 -9 -40
690 -9 -40
691 -9 -40
692 -15 14
693 28 38
694 32 -43
695 32 -43
696 -26 -49
697 -26 -49
698 -26 -49
699 -26 -49
700 -26 -49
701 -26 -49
702 40 22
703 40 22
704 40 22
705 40 22
706 40 22
707 40 22
708 -44 8
709 -44 8
710 -44 8
711 -32 -15
712 -32 -15
713 -32 -15
714 -32 -15
715 -32 -15
716 -13 47
717 -13 47
718 -13 47
719 -13 47
720 -13 47
721 -32 14
722 -26 34
723 -26 34
724 -26 34
725 -26 34
726 -26 34
727 -26 34
728 -26 34
729 6 31
730 6 31
731 6 31
732 6 31
733 28 -50
734 28 -50
735 28 -50
736 -39 16
737 -39 16
738 -39 16
739 -39 16
740 -33 -26
741 -33 -26
742 -33 -26
743 -33 -26
744 -33 -26
745 12 -9
746 12 -9
747 29 41
748 29 41
749 29 41
750 29 41
751 17 -48
752 17 -48
753 17 -48
754 17 -48
755 17 -48
756 17 -48
757 -16 -3
758 -16 -3
759 -16 -3
760 -16 -3
761 24 -45
762 24 -45
763 24 -45
764 38 29
765 38 29
766 38 29
767 38 29
768 38 29
769 -41 17
770 -41 17
771 -44 13
772 -44 13
773 -44 13
774 -19 -21
775 -19 -21
776 -19 -21
777 -19 -21
778 -19 -21
779 -19 -21
780 -19 -21
781 -9 5
782 -43 -13
783 -43 -13
784 -43 -13
785 39 15
786 39 15
787 39 15
788 -4 2
789 -4 2
790 -4 2
791 -4 2
792 -4 2
793 32 -35
794 32 -35
795 32 -35
796 32 -35
DEMAND_SECTION
1 0
2 20
3 5
4 1
5 1
6 1
7 20
8 10
9 1
10 1
11 1
12 1
13 20
14 20
15 5
16 1
17 1
18 1
19 20
20 10
21 1
22 1
23 1
24 1
25 20
26 10
27 5
28 20
29 1
30 1
31 20
32 10
33 5
34 1
35 1
36 1
37 20
38 20
39 1
40 1
41 1
42 1
43 10
44 5
45 20
46 20
47 5
48 1
49 20
50 20
51 20
52 5
53 1
54 1
55 1
56 1
57 20
58 20
59 5
60 1
61 1
62 1
63 20
64 10
65 1
66 1
67 20
68 20
69 5
70 1
71 1
72 10
73 5
74 1
75 1
76 20
77 20
78 5
79 20
80 10
81 5
82 1
83 20
84 20
85 10
86 1
87 1
88 1
89 1
90 20
91 20
92 5
93 1
94 1
95 1
96 1
97 20
98 10
99 5
100 1
101 1
102 1
103 10
104 5
105 1
106 10
107 1
108 1
109 1
110 1
111 20
112 5
113 20
114 20
115 10
116 20
117 1
118 1
119 1
120 20
121 1
122 1
123 1
124 1
125 10
126 1
127 1
128 1
129 1
130 20
131 1
132 20
133 10
134 1
135 1
136 1
137 20
138 10
139 1
140 20
141 10
142 5
143 1
144 20
145 20
146 5
147 1
148 1
149 20
150 20
151 5
152 1
153 1
154 20
155 20
156 5
157 1
158 1
159 1
160 1
161 20
162 5
163 20
164 20
165 5
166 20
167 1
168 20
169 1
170 20
171 10
172 1
173 20
174 20
175 1
176 1
177 1
178 20
179 20
180 1
181 1
182 1
183 20
184 5
185 1
186 1
187 20
188 5
189 1
190 1
191 1
192 1
193 10
194 5
195 1
196 1
197 1
198 1
199 20
200 20
201 5
202 1
203 1
204 20
205 5
206 1
207 1
208 1
209 20
210 20
211 1
212 1
213 10
214 1
215 1
216 1
217 20
218 10
219 20
220 1
221 1
222 1
223 20
224 5
225 20
226 20
227 5
228 1
229 1
230 10
231 1
232 1
233 1
234 1
235 20
236 20
237 1
238 1
239 20
240 5
241 1
242 20
243 5
244 1
245 1
246 1
247 1
248 20
249 10
250 1
251 20
252 20
253 1
254 1
255 1
256 1
257 20
258 20
259 1
260 1
261 20
262 10
263 1
264 1
265 20
266 1
267 1
268 10
269 1
270 1
271 1
272 1
273 20
274 20
275 20
276 10
277 1
278 1
279 1
280 1
281 20
282 20
283 5
284 20
285 20
286 20
287 10
288 5
289 20
290 20
291 1
292 1
293 1
294 1
295 10
296 1
297 1
298 1
299 20
300 20
301 5
302 1
303 20
304 5
305 1
306 1
307 1
308 1
309 20
310 20
311 10
312 20
313 20
314 5
315 1
316 20
317 10
318 1
319 1
320 1
321 1
322 20
323 20
324 5
325 1
326 1
327 1
328 20
329 20
330 20
331 20
332 5
333 1
334 20
335 10
336 1
337 20
338 20
339 5
340 1
341 1
342 20
343 5
344 1
345 1
346 1
347 1
348 20
349 5
350 20
351 1
352 1
353 1
354 20
355 10
356 1
357 1
358 20
359 20
360 1
361 1
362 1
363 1
364 20
365 10
366 5
367 1
368 1
369 1
370 1
371 20
372 5
373 1
374 1
375 1
376 10
377 1
378 1
379 1
380 1
381 10
382 5
383 20
384 10
385 20
386 5
387 20
388 20
389 1
390 1
391 1
392 1
393 20
394 5
395 1
396 20
397 10
398 5
399 1
400 1
401 1
402 10
403 5
404 20
405 20
406 10
407 5
408 1
409 1
410 20
411 10
412 1
413 1
414 10
415 1
416 1
417 1
418 1
419 20
420 20
421 10
422 5
423 1
424 1
425 20
426 20
427 10
428 20
429 10
430 1
431 1
432 1
433 20
434 20
435 5
436 1
437 10
438 1
439 1
440 10
441 5
442 1
443 1
444 20
445 5
446 1
447 1
448 1
449 20
450 20
451 5
452 1
453 1
454 1
455 20
456 10
457 5
458 20
459 20
460 1
461 1
462 1
463 1
464 20
465 20
466 5
467 1
468 1
469 1
470 1
471 20
472 10
473 20
474 1
475 1
476 1
477 1
478 20
479 10
480 20
481 1
482 20
483 20
484 20
485 10
486 1
487 1
488 1
489 1
490 20
491 10
492 1
493 1
494 20
495 20
496 5
497 1
498 1
499 1
500 20
501 5
502 1
503 1
504 1
505 1
506 20
507 10
508 20
509 5
510 1
511 20
512 10
513 5
514 20
515 10
516 10
517 1
518 1
519 20
520 10
521 1
522 10
523 5
524 20
525 20
526 1
527 1
528 1
529 20
530 10
531 5
532 1
533 20
534 1
535 1
536 1
537 20
538 10
539 20
540 10
541 5
542 1
543 20
544 5
545 1
546 1
547 1
548 20
549 10
550 10
551 5
552 1
553 1
554 1
555 20
556 20
557 5
558 1
559 20
560 20
561 1
562 1
563 1
564 1
565 20
566 20
567 1
568 1
569 1
570 20
571 10
572 5
573 1
574 1
575 1
576 10
577 5
578 1
579 1
580 20
581 20
582 20
583 20
584 5
585 1
586 1
587 1
588 20
589 20
590 5
591 10
592 5
593 1
594 1
595 20
596 10
597 5
598 1
599 1
600 1
601 20
602 10
603 1
604 1
605 1
606 20
607 1
608 20
609 10
610 5
611 1
612 20
613 10
614 5
615 1
616 1
617 1
618 20
619 10
620 1
621 1
622 1
623 1
624 10
625 5
626 20
627 10
628 5
629 1
630 20
631 1
632 1
633 1
634 20
635 10
636 1
637 20
638 20
639 5
640 1
641 1
642 1
643 1
644 20
645 1
646 20
647 10
648 1
649 1
650 1
651 10
652 5
653 1
654 20
655 5
656 1
657 20
658 1
659 20
660 5
661 1
662 1
663 20
664 5
665 1
666 1
667 1
668 20
669 10
670 1
671 1
672 1
673 20
674 20
675 5
676 1
677 20
678 20
679 1
680 1
681 20
682 1
683 20
684 20
685 1
686 1
687 20
688 20
689 5
690 1
691 1
692 20
693 20
694 20
695 20
696 20
697 10
698 5
699 1
700 1
701 1
702 10
703 5
704 1
705 1
706 1
707 1
708 20
709 20
710 1
711 20
712 20
713 5
714 1
715 1
716 20
717 20
718 1
719 1
720 1
721 20
722 20
723 10
724 5
725 1
726 1
727 1
728 1
729 20
730 10
731 1
732 1
733 20
734 1
735 1
736 20
737 10
738 1
739 1
740 20
741 20
742 1
743 1
744 1
745 20
746 1
747 20
748 20
749 1
750 1
751 20
752 5
753 1
754 1
755 1
756 1
757 20
758 20
759 5
760 1
761 20
762 1
763 1
764 20
765 20
766 1
767 1
768 1
769 10
770 5
771 20
772 5
773 1
774 20
775 20
776 5
777 1
778 1
779 1
780 1
781 20
782 20
783 10
784 1
785 20
786 10
787 1
788 20
789 1
790 1
791 1
792 1
793 10
794 1
795 1
796 1
DEPOT_SECTION
1
-1
EOF