Normalized Data/p10_26_normalized_split0.sol
795 -2 3 5 1 4 101 96 498 495 493 494 497 496 -13 15 12 16 138 136 728 729 731 730 290 292 293 291 -17 14 364 367 365 369 366 363 368 524 525 527 526 523 137 -22 23 20 18 19 21 143 144 145 744 745 -24 26 25 129 130 167 168 533 532 534 535 -33 35 34 30 31 32 691 780 787 -42 43 287 286 285 416 413 414 415 417 597 596 594 595 -46 44 47 45 776 777 775 779 778 774 773 -49 50 772 771 770 738 736 88 84 85 87 86 557 556 -52 53 55 51 54 708 709 707 437 438 436 371 370 374 372 373 601 -59 56 61 60 58 57 538 539 193 197 196 194 192 195 -65 394 392 537 536 634 635 633 659 661 124 -72 73 71 74 725 723 726 727 721 724 722 357 358 359 361 362 360 -75 76 77 329 332 330 331 445 447 446 444 -104 102 687 688 686 677 679 678 676 -109 106 108 107 105 37 36 40 39 41 38 593 591 592 590 219 221 220 218 -115 657 656 93 95 89 94 92 90 91 548 -117 118 116 234 236 237 235 395 247 249 248 -123 121 122 120 100 98 99 97 254 251 252 253 255 250 489 491 490 492 -126 128 125 127 713 714 712 711 710 148 150 152 149 151 -135 132 134 131 133 8 9 7 6 10 11 114 262 263 260 -147 146 350 349 352 351 181 180 177 179 178 519 518 520 -158 154 157 153 156 159 155 742 740 513 514 -166 164 163 162 217 216 547 -171 170 169 430 427 428 429 431 506 505 748 749 -172 175 176 174 577 576 205 206 207 224 226 228 227 225 643 644 -173 578 575 328 327 203 204 -182 342 341 345 62 63 64 629 631 632 630 -184 183 185 282 281 280 257 258 256 259 -201 198 200 202 199 309 308 310 -210 211 208 209 648 646 647 737 735 649 645 -215 214 212 213 443 119 559 558 563 561 562 560 -223 222 624 623 720 554 555 -229 278 279 277 276 274 275 456 455 454 284 -232 231 230 233 268 270 267 269 271 627 628 626 625 663 662 666 664 665 650 652 651 599 598 -241 307 305 302 306 66 69 70 67 68 792 -242 693 694 339 340 337 338 336 303 304 793 795 -246 244 243 245 680 681 298 301 300 299 451 734 448 453 450 -272 273 78 81 79 80 602 604 603 600 -289 288 165 580 579 -312 311 191 189 186 187 190 188 471 470 -313 314 478 477 83 82 266 264 265 794 -318 705 704 701 703 706 702 113 112 403 261 334 -333 335 784 786 785 384 385 683 684 -346 343 344 296 297 295 294 393 783 781 782 583 581 586 584 582 585 -347 348 655 654 653 110 111 419 423 422 -353 356 355 354 531 529 530 528 -381 380 717 719 718 716 715 484 487 488 485 483 486 -383 382 667 671 669 458 462 457 459 461 460 -390 389 391 388 387 386 142 139 141 140 668 670 -396 399 398 397 400 573 569 574 570 572 571 658 660 741 739 743 -412 411 410 404 405 406 408 407 238 240 239 672 674 -425 426 424 638 639 641 642 637 640 636 -432 434 433 435 161 160 401 402 515 516 517 -469 463 468 464 466 467 465 756 757 759 758 -480 479 316 315 320 317 319 766 763 765 764 767 568 566 567 -482 481 521 522 283 409 690 689 -510 512 511 440 442 439 441 509 508 507 682 685 -540 541 500 503 501 502 504 499 452 733 449 732 760 761 762 -546 543 542 544 545 755 751 753 750 754 752 472 475 473 474 476 421 420 620 622 619 621 -564 565 747 746 692 -587 588 589 103 48 618 617 -606 605 418 27 29 28 608 609 607 610 -673 675 613 614 612 616 611 615 698 700 695 697 696 699 -769 768 549 552 553 550 551 379 377 375 376 378 325 324 323 321 322 326 789 791 790 788 0 





OBJ=
5623.470
BEST_KNOWN=
0.000